50
230
231
246
215
215
220
249
242
231
214
237
249
232
254
227
233
226
254
250
239
243
235
220
241
231
234
233
231
235
235
251
223
228
218
215
224
242
228
238
217
217
220
252
250
256
249
227
226
218
216
